Version identifier: 12.10.0.0 | 2019-11-26 | 843d4de
CPXPARAM_WorkMem                                 28672
Tried aggregator 2 times.
MIP Presolve eliminated 14 rows and 0 columns.
MIP Presolve added 28 rows and 0 columns.
Aggregator did 40 substitutions.
Reduced MIP has 76 rows, 70 columns, and 314 nonzeros.
Reduced MIP has 70 binaries, 0 generals, 0 SOSs, and 0 indicators.
Presolve time = 0,00 sec. (0,64 ticks)
Found incumbent of value 55,000000 after 0,00 sec. (0,74 ticks)
Probing time = 0,00 sec. (0,33 ticks)
Tried aggregator 1 time.
Detecting symmetries...
Reduced MIP has 76 rows, 70 columns, and 314 nonzeros.
Reduced MIP has 70 binaries, 0 generals, 0 SOSs, and 0 indicators.
Presolve time = 0,00 sec. (0,26 ticks)
Probing time = 0,00 sec. (0,32 ticks)
Clique table members: 277.
MIP emphasis: balance optimality and feasibility.
MIP search method: dynamic search.
Parallel mode: deterministic, using up to 16 threads.
Root relaxation solution time = 0,00 sec. (0,17 ticks)

        Nodes                                         Cuts/
   Node  Left     Objective  IInf  Best Integer    Best Bound    ItCnt     Gap

*     0+    0                           55,0000        0,0000           100,00%
*     0+    0                           52,0000        0,0000           100,00%
      0     0       30,0000    68       52,0000       30,0000       33   42,31%
      0     0       35,1500    68       52,0000     Cuts: 114       75   32,40%
*     0+    0                           50,0000       35,1500            29,70%
      0     0       36,7099    68       50,0000      Cuts: 96      111   26,58%
      0     0       37,1667    68       50,0000     Cuts: 111      141   25,67%
      0     0       37,1940    68       50,0000      Cuts: 24      157   25,61%
      0     0       37,2151    68       50,0000   ZeroHalf: 9      169   25,57%
Detecting symmetries...
      0     0       37,2419    68       50,0000      Cuts: 23      181   25,52%
      0     0       37,2953    68       50,0000  ZeroHalf: 11      191   25,41%
      0     0       37,3406    68       50,0000  ZeroHalf: 11      205   25,32%
      0     0       37,4130    68       50,0000      Cuts: 24      228   25,17%
      0     0       37,4456    68       50,0000      Cuts: 25      250   25,11%
      0     0       37,5046    68       50,0000      Cuts: 23      272   24,99%
      0     0       37,5178    68       50,0000      Cuts: 15      285   24,96%
      0     0       37,5300    68       50,0000      Cuts: 11      293   24,94%
      0     0       37,5397    68       50,0000      Cuts: 37      307   24,92%
      0     0       37,5442    68       50,0000      Cuts: 22      318   24,91%
      0     0       37,5481    68       50,0000      Cuts: 31      326   24,90%
      0     0        cutoff             50,0000       50,0000      326    0,00%
Elapsed time = 0,09 sec. (28,37 ticks, tree = 0,01 MB, solutions = 3)

Clique cuts applied:  7
Cover cuts applied:  7
Flow cuts applied:  5
Mixed integer rounding cuts applied:  13
Zero-half cuts applied:  16
Gomory fractional cuts applied:  4

Root node processing (before b&c):
  Real time             =    0,09 sec. (28,38 ticks)
Parallel b&c, 16 threads:
  Real time             =    0,00 sec. (0,00 ticks)
  Sync time (average)   =    0,00 sec.
  Wait time (average)   =    0,00 sec.
                          ------------
Total (root+branch&cut) =    0,09 sec. (28,38 ticks)
